CPXPARAM_TimeLimit                               3600
CPXPARAM_Read_DataCheck                          1
Tried aggregator 1 time.
MIP Presolve eliminated 3446 rows and 0 columns.
MIP Presolve modified 5980 coefficients.
Reduced MIP has 225734 rows, 72601 columns, and 815382 nonzeros.
Reduced MIP has 3800 binaries, 0 generals, 0 SOSs, and 0 indicators.
Presolve time = 0.20 sec. (300.69 ticks)
Found incumbent of value 16483.000000 after 0.40 sec. (540.77 ticks)
Probing fixed 0 vars, tightened 4 bounds.
Probing time = 0.06 sec. (50.48 ticks)
Tried aggregator 1 time.
Reduced MIP has 225734 rows, 72601 columns, and 815382 nonzeros.
Reduced MIP has 3800 binaries, 0 generals, 0 SOSs, and 0 indicators.
Presolve time = 0.41 sec. (406.81 ticks)
Probing time = 0.04 sec. (33.48 ticks)
MIP emphasis: balance optimality and feasibility.
MIP search method: dynamic search.
Parallel mode: deterministic, using up to 8 threads.
Root relaxation solution time = 145.01 sec. (33502.17 ticks)

        Nodes                                         Cuts/
   Node  Left     Objective  IInf  Best Integer    Best Bound    ItCnt     Gap

*     0+    0                        16483.0000     1237.0000            92.50%
*     0+    0                        16329.0000     1237.0000            92.42%
      0     0     1237.0000  2796    16329.0000     1237.0000    50272   92.42%
      0     0     1237.0351  2754    16329.0000    Cuts: 5293   299020   92.42%

Cover cuts applied:  1
Implied bound cuts applied:  705
Flow cuts applied:  425
Mixed integer rounding cuts applied:  3235
Gomory fractional cuts applied:  5

Root node processing (before b&c):
  Real time             = 3600.09 sec. (2011334.24 ticks)
Parallel b&c, 8 threads:
  Real time             =    0.00 sec. (0.00 ticks)
  Sync time (average)   =    0.00 sec.
  Wait time (average)   =    0.00 sec.
                          ------------
Total (root+branch&cut) = 3600.09 sec. (2011334.24 ticks)
